NAME 
ROWS
 N  OBJ
 L  R0      
 E  R1      
 E  R2      
 E  R3      
 E  R4      
 E  R5      
 E  R6      
 E  R7      
 E  R8      
 E  R9      
 E  R10     
 E  R11     
 E  R12     
 E  R13     
 E  R14     
 E  R15     
 E  R16     
 E  R17     
 E  R18     
 E  R19     
 E  R20     
 E  R21     
 E  R22     
 E  R23     
 E  R24     
 E  R25     
 E  R26     
 E  R27     
 E  R28     
 E  R29     
 E  R30     
COLUMNS
    MARKER    'MARKER'                 'INTORG'
    I0(3)     OBJ       -11
    I0(3)     R0        44
    I0(3)     R1        2
    I0(3)     R30       1
    I1(3)     OBJ       125
    I1(3)     R0        -32
    I1(3)     R2        4
    I1(3)     R30       1
    I2(2)     OBJ       -160
    I2(2)     R3        2
    I2(2)     R30       1
    I3(3)     OBJ       172
    I3(3)     R0        4
    I3(3)     R4        4
    I3(3)     R30       1
    I4(3)     OBJ       -54
    I4(3)     R0        185
    I4(3)     R5        4
    I4(3)     R30       1
    I5(3)     OBJ       3
    I5(3)     R0        -7
    I5(3)     R6        7
    I5(3)     R30       1
    I6(3)     OBJ       149
    I6(3)     R0        48
    I6(3)     R7        17
    I6(3)     R30       1
    I7(3)     OBJ       116
    I7(3)     R0        -120
    I7(3)     R8        2
    I7(3)     R30       1
    I8(3)     OBJ       35
    I8(3)     R0        -108
    I8(3)     R9        4
    I8(3)     R30       1
    I9(3)     OBJ       -70
    I9(3)     R0        -177
    I9(3)     R10       6
    I9(3)     R30       1
    I10(3)    OBJ       -128
    I10(3)    R0        -83
    I10(3)    R11       8
    I10(3)    R30       1
    I11(3)    OBJ       -168
    I11(3)    R0        -137
    I11(3)    R12       -1
    I11(3)    R30       1
    I12(3)    OBJ       87
    I12(3)    R0        -184
    I12(3)    R13       11
    I12(3)    R30       1
    I13(2)    OBJ       111
    I13(2)    R0        -139
    I13(2)    R30       1
    I14(3)    OBJ       78
    I14(3)    R0        9
    I14(3)    R15       16
    I14(3)    R30       1
    I15(3)    OBJ       -102
    I15(3)    R0        -40
    I15(3)    R16       2
    I15(3)    R30       1
    I16(3)    OBJ       -141
    I16(3)    R0        -184
    I16(3)    R17       4
    I16(3)    R30       1
    I17(3)    OBJ       135
    I17(3)    R0        -42
    I17(3)    R18       14
    I17(3)    R30       1
    I18(3)    OBJ       86
    I18(3)    R0        112
    I18(3)    R19       9
    I18(3)    R30       1
    I19(3)    OBJ       154
    I19(3)    R0        -60
    I19(3)    R20       11
    I19(3)    R30       1
    I20(3)    OBJ       -70
    I20(3)    R0        -142
    I20(3)    R21       16
    I20(3)    R30       1
    I21(3)    OBJ       -86
    I21(3)    R0        14
    I21(3)    R22       14
    I21(3)    R30       1
    I22(3)    OBJ       -50
    I22(3)    R0        158
    I22(3)    R23       7
    I22(3)    R30       1
    I23(2)    OBJ       15
    I23(2)    R0        -73
    I23(2)    R30       1
    I24(3)    OBJ       -80
    I24(3)    R0        -139
    I24(3)    R25       13
    I24(3)    R30       1
    I25(2)    OBJ       174
    I25(2)    R0        -72
    I25(2)    R30       1
    I26(3)    OBJ       -24
    I26(3)    R0        63
    I26(3)    R27       12
    I26(3)    R30       1
    MARKER    'MARKER'                 'INTEND'
    C27(27)   OBJ       -8
    C27(27)   R0        -1
    C27(27)   R1        3
    C27(27)   R2        2
    C27(27)   R3        16
    C27(27)   R4        -1
    C27(27)   R5        13
    C27(27)   R6        3
    C27(27)   R7        2
    C27(27)   R8        10
    C27(27)   R9        8
    C27(27)   R10       8
    C27(27)   R11       19
    C27(27)   R12       17
    C27(27)   R13       1
    C27(27)   R14       6
    C27(27)   R15       18
    C27(27)   R16       -1
    C27(27)   R17       19
    C27(27)   R18       17
    C27(27)   R19       15
    C27(27)   R21       1
    C27(27)   R24       9
    C27(27)   R25       12
    C27(27)   R26       4
    C27(27)   R27       4
    C27(27)   R28       9
    C27(27)   R29       9
    C28(29)   OBJ       1
    C28(29)   R0        5
    C28(29)   R1        17
    C28(29)   R2        19
    C28(29)   R3        15
    C28(29)   R4        1
    C28(29)   R5        17
    C28(29)   R6        11
    C28(29)   R7        14
    C28(29)   R8        5
    C28(29)   R9        12
    C28(29)   R10       4
    C28(29)   R12       4
    C28(29)   R13       12
    C28(29)   R14       12
    C28(29)   R15       4
    C28(29)   R16       1
    C28(29)   R17       8
    C28(29)   R18       5
    C28(29)   R19       18
    C28(29)   R20       16
    C28(29)   R21       18
    C28(29)   R22       1
    C28(29)   R23       13
    C28(29)   R24       5
    C28(29)   R25       14
    C28(29)   R26       6
    C28(29)   R27       17
    C28(29)   R28       2
    C28(29)   R29       12
    C29(29)   OBJ       1
    C29(29)   R0        6
    C29(29)   R1        13
    C29(29)   R2        5
    C29(29)   R3        1
    C29(29)   R4        3
    C29(29)   R5        2
    C29(29)   R6        13
    C29(29)   R7        2
    C29(29)   R8        5
    C29(29)   R9        16
    C29(29)   R10       19
    C29(29)   R11       3
    C29(29)   R12       14
    C29(29)   R13       16
    C29(29)   R15       17
    C29(29)   R16       -1
    C29(29)   R17       15
    C29(29)   R18       17
    C29(29)   R19       10
    C29(29)   R20       15
    C29(29)   R21       8
    C29(29)   R22       11
    C29(29)   R23       8
    C29(29)   R24       9
    C29(29)   R25       14
    C29(29)   R26       2
    C29(29)   R27       1
    C29(29)   R28       8
    C29(29)   R29       2
    C30(1)    R1        1
    C31(1)    R2        1
    C32(1)    R3        1
    C33(1)    R4        1
    C34(1)    R5        1
    C35(1)    R6        1
    C36(1)    R7        1
    C37(1)    R8        1
    C38(1)    R9        1
    C39(1)    R10       1
    C40(1)    R11       1
    C41(1)    R12       1
    C42(1)    R13       1
    C43(1)    R14       1
    C44(1)    R15       1
    C45(1)    R16       1
    C46(1)    R17       1
    C47(1)    R18       1
    C48(1)    R19       1
    C49(1)    R20       1
    C50(1)    R21       1
    C51(1)    R22       1
    C52(1)    R23       1
    C53(1)    R24       1
    C54(1)    R25       1
    C55(1)    R26       1
    C56(1)    R27       1
    C57(1)    R28       1
    C58(1)    R29       1
    C59(1)    R30       1
RHS
    RHS1      R0        -8.9052631578947364e+02
    RHS1      R1        94
    RHS1      R2        63
    RHS1      R3        85
    RHS1      R4        63
    RHS1      R5        58
    RHS1      R6        95
    RHS1      R7        78
    RHS1      R8        65
    RHS1      R9        57
    RHS1      R10       91
    RHS1      R11       56
    RHS1      R12       61
    RHS1      R13       77
    RHS1      R14       66
    RHS1      R15       68
    RHS1      R16       84
    RHS1      R17       82
    RHS1      R18       97
    RHS1      R19       79
    RHS1      R20       88
    RHS1      R21       79
    RHS1      R22       68
    RHS1      R23       89
    RHS1      R24       72
    RHS1      R25       50
    RHS1      R26       99
    RHS1      R27       85
    RHS1      R28       97
    RHS1      R29       51
    RHS1      R30       9
BOUNDS
 UP BND1      I0(3)     1
 UP BND1      I1(3)     1
 UP BND1      I2(2)     1
 UP BND1      I3(3)     1
 UP BND1      I4(3)     1
 UP BND1      I5(3)     1
 UP BND1      I6(3)     1
 UP BND1      I7(3)     1
 UP BND1      I8(3)     1
 UP BND1      I9(3)     1
 UP BND1      I10(3)    1
 UP BND1      I11(3)    1
 UP BND1      I12(3)    1
 UP BND1      I13(2)    1
 UP BND1      I14(3)    1
 UP BND1      I15(3)    1
 UP BND1      I16(3)    1
 UP BND1      I17(3)    1
 UP BND1      I18(3)    1
 UP BND1      I19(3)    1
 UP BND1      I20(3)    1
 UP BND1      I21(3)    1
 UP BND1      I22(3)    1
 UP BND1      I23(2)    1
 UP BND1      I24(3)    1
 UP BND1      I25(2)    1
 UP BND1      I26(3)    1
ENDATA
